============================[ Problem Statistics ]=============================|                                                                             ||  Number of variables:          4242                                         ||  Number of clauses:           10055                                         ||  Parse time:                   0.46 s                                       ||                                                                             |============================[ Search Statistics ]==============================| Conflicts |          ORIGINAL         |          LEARNT          | Progress ||           |    Vars  Clauses Literals |    Limit  Clauses Lit/Cl |          |===============================================================================|       100 |    1591     6260   707061 |     2295      100     53 | 62.501 % ||       250 |    1591     6260   707061 |     2524      250     75 | 62.495 % |===============================================================================restarts              : 3conflicts             : 252            (365 /sec)decisions             : 519            (0.00 % random) (751 /sec)propagations          : 11758          (17016 /sec)conflict literals     : 19065          (94.89 % deleted)CPU time              : 0.691 sSATISFIABLE